Welcome to the CBC MILP Solver 
Version: 2.10.12 
Build Date: Aug 20 2024 

command line - /opt/homebrew/bin/cbc computational_data/real_data/lp/wine_trial_014_margin.lp seconds 10.0 solve solu computational_data/real_data/solutions/wine_trial_014_margin.sol (default strategy 1)
 CoinLpIO::readLp(): Maximization problem reformulated as minimization
Coin0009I Switching back to maximization to get correct duals etc
seconds was changed from 1e+100 to 10
Continuous objective value is 35.6714 - 0.00 seconds
Cgl0003I 0 fixed, 0 tightened bounds, 113 strengthened rows, 0 substitutions
Cgl0003I 0 fixed, 0 tightened bounds, 86 strengthened rows, 0 substitutions
Cgl0003I 0 fixed, 0 tightened bounds, 66 strengthened rows, 0 substitutions
Cgl0003I 0 fixed, 0 tightened bounds, 36 strengthened rows, 0 substitutions
Cgl0003I 0 fixed, 0 tightened bounds, 13 strengthened rows, 0 substitutions
Cgl0003I 0 fixed, 0 tightened bounds, 8 strengthened rows, 0 substitutions
Cgl0003I 0 fixed, 0 tightened bounds, 8 strengthened rows, 0 substitutions
Cgl0003I 0 fixed, 0 tightened bounds, 7 strengthened rows, 0 substitutions
Cgl0003I 0 fixed, 0 tightened bounds, 5 strengthened rows, 0 substitutions
Cgl0004I processed model has 122 rows, 68 columns (68 integer (68 of which binary)) and 1887 elements
Cbc0038I Initial state - 9 integers unsatisfied sum - 4.33333
Cbc0038I Pass   1: suminf.    0.33333 (1) obj. 35.6714 iterations 14
Cbc0038I Solution found of 35.0047
Cbc0038I Before mini branch and bound, 59 integers at bound fixed and 0 continuous
Cbc0038I Full problem 122 rows 68 columns, reduced to 3 rows 3 columns
Cbc0038I Mini branch and bound did not improve solution (0.01 seconds)
Cbc0038I Round again with cutoff of 35.0714
Cbc0038I Reduced cost fixing fixed 33 variables on major pass 2
Cbc0038I Pass   2: suminf.    0.33333 (1) obj. 35.6714 iterations 0
Cbc0038I Pass   3: suminf.    0.06668 (1) obj. 35.0714 iterations 7
Cbc0038I Pass   4: suminf.    0.33333 (1) obj. 35.6714 iterations 9
Cbc0038I Pass   5: suminf.    5.73340 (12) obj. 35.0714 iterations 40
Cbc0038I Pass   6: suminf.    0.73337 (2) obj. 35.0714 iterations 13
Cbc0038I Pass   7: suminf.    0.73337 (2) obj. 35.0714 iterations 6
Cbc0038I Pass   8: suminf.    0.06670 (1) obj. 35.0714 iterations 4
Cbc0038I Pass   9: suminf.    0.33333 (1) obj. 35.6714 iterations 3
Cbc0038I Pass  10: suminf.    0.33333 (1) obj. 35.6714 iterations 7
Cbc0038I Pass  11: suminf.    0.33333 (1) obj. 35.6714 iterations 9
Cbc0038I Pass  12: suminf.    0.33333 (1) obj. 35.6714 iterations 23
Cbc0038I Pass  13: suminf.    0.33333 (1) obj. 35.6714 iterations 21
Cbc0038I Pass  14: suminf.    0.06668 (1) obj. 35.0714 iterations 6
Cbc0038I Pass  15: suminf.    0.06668 (1) obj. 35.0714 iterations 30
Cbc0038I Pass  16: suminf.    0.06668 (1) obj. 35.0714 iterations 30
Cbc0038I Pass  17: suminf.    0.33333 (1) obj. 35.6714 iterations 9
Cbc0038I Pass  18: suminf.    0.33333 (1) obj. 35.6714 iterations 4
Cbc0038I Pass  19: suminf.    0.06670 (1) obj. 35.0714 iterations 23
Cbc0038I Pass  20: suminf.    0.06670 (1) obj. 35.0714 iterations 10
Cbc0038I Pass  21: suminf.    0.33333 (1) obj. 35.6714 iterations 4
Cbc0038I Pass  22: suminf.    0.33333 (1) obj. 35.6714 iterations 21
Cbc0038I Pass  23: suminf.    0.33333 (1) obj. 35.6714 iterations 15
Cbc0038I Pass  24: suminf.    0.06668 (1) obj. 35.0714 iterations 5
Cbc0038I Pass  25: suminf.    0.06670 (1) obj. 35.0714 iterations 23
Cbc0038I Pass  26: suminf.    0.06670 (1) obj. 35.0714 iterations 16
Cbc0038I Pass  27: suminf.    0.33333 (1) obj. 35.6714 iterations 1
Cbc0038I Pass  28: suminf.    4.50000 (10) obj. 35.5047 iterations 16
Cbc0038I Pass  29: suminf.    0.33333 (1) obj. 35.6714 iterations 8
Cbc0038I Pass  30: suminf.    0.33333 (1) obj. 35.6714 iterations 7
Cbc0038I Pass  31: suminf.    0.06668 (1) obj. 35.0714 iterations 7
Cbc0038I No solution found this major pass
Cbc0038I Before mini branch and bound, 48 integers at bound fixed and 0 continuous
Cbc0038I Full problem 122 rows 68 columns, reduced to 65 rows 20 columns
Cbc0038I Mini branch and bound did not improve solution (0.02 seconds)
Cbc0038I After 0.02 seconds - Feasibility pump exiting with objective of 35.0047 - took 0.01 seconds
Cbc0012I Integer solution of 35.004722 found by feasibility pump after 0 iterations and 0 nodes (0.02 seconds)
Cbc0038I Full problem 122 rows 68 columns, reduced to 3 rows 3 columns
Cbc0031I 2 added rows had average density of 27.5
Cbc0013I At root node, 30 cuts changed objective from 35.671402 to 35.004722 in 4 passes
Cbc0014I Cut generator 0 (Probing) - 0 row cuts average 0.0 elements, 0 column cuts (0 active)  in 0.001 seconds - new frequency is -100
Cbc0014I Cut generator 1 (Gomory) - 34 row cuts average 31.3 elements, 0 column cuts (0 active)  in 0.000 seconds - new frequency is 1
Cbc0014I Cut generator 2 (Knapsack) - 2 row cuts average 7.0 elements, 0 column cuts (0 active)  in 0.000 seconds - new frequency is 1
Cbc0014I Cut generator 3 (Clique) - 0 row cuts average 0.0 elements, 0 column cuts (0 active)  in 0.000 seconds - new frequency is -100
Cbc0014I Cut generator 4 (MixedIntegerRounding2) - 1 row cuts average 26.0 elements, 0 column cuts (0 active)  in 0.001 seconds - new frequency is -100
Cbc0014I Cut generator 5 (FlowCover) - 0 row cuts average 0.0 elements, 0 column cuts (0 active)  in 0.000 seconds - new frequency is -100
Cbc0014I Cut generator 6 (TwoMirCuts) - 44 row cuts average 29.2 elements, 0 column cuts (0 active)  in 0.001 seconds - new frequency is -100
Cbc0001I Search completed - best objective 35.00472199999999, took 68 iterations and 0 nodes (0.03 seconds)
Cbc0035I Maximum depth 0, 34 variables fixed on reduced cost
Cuts at root node changed objective from 35.6714 to 35.0047
Probing was tried 4 times and created 0 cuts of which 0 were active after adding rounds of cuts (0.001 seconds)
Gomory was tried 4 times and created 34 cuts of which 0 were active after adding rounds of cuts (0.000 seconds)
Knapsack was tried 4 times and created 2 cuts of which 0 were active after adding rounds of cuts (0.000 seconds)
Clique was tried 4 times and created 0 cuts of which 0 were active after adding rounds of cuts (0.000 seconds)
MixedIntegerRounding2 was tried 4 times and created 1 cuts of which 0 were active after adding rounds of cuts (0.001 seconds)
FlowCover was tried 4 times and created 0 cuts of which 0 were active after adding rounds of cuts (0.000 seconds)
TwoMirCuts was tried 4 times and created 44 cuts of which 0 were active after adding rounds of cuts (0.001 seconds)
ZeroHalf was tried 1 times and created 0 cuts of which 0 were active after adding rounds of cuts (0.000 seconds)

Result - Optimal solution found

Objective value:                35.00472200
Enumerated nodes:               0
Total iterations:               68
Time (CPU seconds):             0.03
Time (Wallclock seconds):       0.03

Total time (CPU seconds):       0.03   (Wallclock seconds):       0.03

